&CONTROL
   calculation      = 'vc-relax'
   restart_mode     = 'from_scratch'
   tstress          = .true.
   tprnfor          = .true.
   outdir           = '/tmp'
   prefix           = 'MoS2_single'
   pseudo_dir       = '/home/gu/projects/PymatgenTest/outputs/'
/
&SYSTEM
   ibrav            = 0
   nat              = 3
   ntyp             = 2
   ecutwfc          = 60
   ecutrho          = 480
   occupations      = 'fixed'
   input_dft        = 'PBE'
/
&ELECTRONS
   conv_thr         = 1e-08
   mixing_mode      = 'plain'
   mixing_beta      = 0.7
/
&IONS
   ion_dynamics     = 'bfgs'
/
&CELL
/
&FCP
/
&RISM
/
ATOMIC_SPECIES
Mo 95.95 Mo.upf
S 32.06 S.upf

K_POINTS automatic
8 8 1  0 0 0

CELL_PARAMETERS angstrom
3.18000000000000 0.00000000000000 0.00000000000000
-1.59000000000000 2.75396078403451 0.00000000000000
0.00000000000000 0.00000000000000 43.19000000000000

ATOMIC_POSITIONS angstrom
Mo 0.0000000000 0.0000000000 21.5950000000  
S 1.5900000000 0.9179869280 23.1900000000  
S 1.5900000000 0.9179869280 20.0000000000  

