Mo S  Mo S  Mo S  Mo S  Mo S  Mo S  Mo S  Mo S  Mo S  Mo S  Mo S  Mo S  Mo S  Mo S  Mo S  Mo S  Mo S  Mo S  Mo S  Mo S  Mo S  Mo S  Mo S  Mo S  Mo S 
 1.0000000000000000
    15.9000000000000004    0.0000000000000000    0.0000000000000000
    -7.9500000000000002   13.7698039201725742    0.0000000000000000
     0.0000000000000000   -0.0000000000000000   43.1899999999999977
 Mo  S   Mo  S   Mo  S   Mo  S   Mo  S   Mo  S   Mo  S   Mo  S   Mo  S   Mo  S   Mo  S   Mo  S   Mo  S   Mo  S   Mo  S   Mo  S   Mo  S   Mo  S   Mo  S   Mo  S   Mo  S   Mo  S   Mo  S   Mo  S   Mo  S  
   1   2   1   2   1   2   1   2   1   2   1   2   1   2   1   2   1   2   1   2   1   2   1   2   1   2   1   2   1   2   1   2   1   2   1   2   1   2   1   2   1   2   1   2   1   2   1   2   1   2
Cartesian
  0.0000000000000000  0.0000000000000000 21.5949999999999989
  1.5900000000000001  0.9179869280115049 23.1899999999999977
  1.5900000000000001  0.9179869280115049 20.0000000000000000
 -1.5900000000000001  2.7539607840345148 21.5949999999999989
  0.0000000000000000  3.6719477120460198 23.1899999999999977
  0.0000000000000000  3.6719477120460198 20.0000000000000000
 -3.1800000000000002  5.5079215680690297 21.5949999999999989
 -1.5900000000000001  6.4259084960805346 23.1899999999999977
 -1.5900000000000001  6.4259084960805346 20.0000000000000000
 -4.7700000000000005  8.2618823521035445 21.5949999999999989
 -3.1800000000000006  9.1798692801150494 23.1899999999999977
 -3.1800000000000006  9.1798692801150494 20.0000000000000000
 -6.3600000000000003 11.0158431361380593 21.5949999999999989
 -4.7700000000000005 11.9338300641495643 23.1899999999999977
 -4.7700000000000005 11.9338300641495643 20.0000000000000000
  3.1800000000000002  0.0000000000000000 21.5949999999999989
  4.7700000000000005  0.9179869280115049 23.1899999999999977
  4.7700000000000005  0.9179869280115049 20.0000000000000000
  1.5900000000000001  2.7539607840345148 21.5949999999999989
  3.1800000000000002  3.6719477120460198 23.1899999999999977
  3.1800000000000002  3.6719477120460198 20.0000000000000000
  0.0000000000000000  5.5079215680690297 21.5949999999999989
  1.5900000000000001  6.4259084960805346 23.1899999999999977
  1.5900000000000001  6.4259084960805346 20.0000000000000000
 -1.5900000000000003  8.2618823521035445 21.5949999999999989
 -0.0000000000000002  9.1798692801150494 23.1899999999999977
 -0.0000000000000002  9.1798692801150494 20.0000000000000000
 -3.1800000000000002 11.0158431361380593 21.5949999999999989
 -1.5900000000000001 11.9338300641495643 23.1899999999999977
 -1.5900000000000001 11.9338300641495643 20.0000000000000000
  6.3600000000000003  0.0000000000000000 21.5949999999999989
  7.9500000000000002  0.9179869280115049 23.1899999999999977
  7.9500000000000002  0.9179869280115049 20.0000000000000000
  4.7700000000000005  2.7539607840345148 21.5949999999999989
  6.3600000000000003  3.6719477120460198 23.1899999999999977
  6.3600000000000003  3.6719477120460198 20.0000000000000000
  3.1800000000000002  5.5079215680690297 21.5949999999999989
  4.7700000000000005  6.4259084960805346 23.1899999999999977
  4.7700000000000005  6.4259084960805346 20.0000000000000000
  1.5899999999999999  8.2618823521035445 21.5949999999999989
  3.1799999999999997  9.1798692801150494 23.1899999999999977
  3.1799999999999997  9.1798692801150494 20.0000000000000000
  0.0000000000000000 11.0158431361380593 21.5949999999999989
  1.5900000000000001 11.9338300641495643 23.1899999999999977
  1.5900000000000001 11.9338300641495643 20.0000000000000000
  9.5400000000000009  0.0000000000000000 21.5949999999999989
 11.1300000000000008  0.9179869280115049 23.1899999999999977
 11.1300000000000008  0.9179869280115049 20.0000000000000000
  7.9500000000000011  2.7539607840345148 21.5949999999999989
  9.5400000000000009  3.6719477120460198 23.1899999999999977
  9.5400000000000009  3.6719477120460198 20.0000000000000000
  6.3600000000000012  5.5079215680690297 21.5949999999999989
  7.9500000000000011  6.4259084960805346 23.1899999999999977
  7.9500000000000011  6.4259084960805346 20.0000000000000000
  4.7700000000000005  8.2618823521035445 21.5949999999999989
  6.3600000000000003  9.1798692801150494 23.1899999999999977
  6.3600000000000003  9.1798692801150494 20.0000000000000000
  3.1800000000000006 11.0158431361380593 21.5949999999999989
  4.7700000000000005 11.9338300641495643 23.1899999999999977
  4.7700000000000005 11.9338300641495643 20.0000000000000000
 12.7200000000000006  0.0000000000000000 21.5949999999999989
 14.3100000000000005  0.9179869280115049 23.1899999999999977
 14.3100000000000005  0.9179869280115049 20.0000000000000000
 11.1300000000000008  2.7539607840345148 21.5949999999999989
 12.7200000000000006  3.6719477120460198 23.1899999999999977
 12.7200000000000006  3.6719477120460198 20.0000000000000000
  9.5400000000000009  5.5079215680690297 21.5949999999999989
 11.1300000000000008  6.4259084960805346 23.1899999999999977
 11.1300000000000008  6.4259084960805346 20.0000000000000000
  7.9500000000000002  8.2618823521035445 21.5949999999999989
  9.5400000000000009  9.1798692801150494 23.1899999999999977
  9.5400000000000009  9.1798692801150494 20.0000000000000000
  6.3600000000000003 11.0158431361380593 21.5949999999999989
  7.9500000000000002 11.9338300641495643 23.1899999999999977
  7.9500000000000002 11.9338300641495643 20.0000000000000000
